4 
3 
3 
9 
3 
6 
5 
8 
3 
8 
6 
5 
3 
3 
1 
5 
6 
3 
8 
3 
8 
7 
1 
6 
6 
7 
5 
5 
6 
1 
5 
5 
1 
4 
5 
4 
1 
4 
6 
1 
2 
5 
3 
2 
3 
1 
7 
7 
6 
6 
4 
3 
7 
2 
5 
7 
7 
7 
6 
6 
5 
6 
7 
6 
5 
4 
5 
5 
2 
11 
2 
5 
3 
5 
5 
2 
5 
6 
6 
3 
6 
6 
12 
5 
4 
5 
3 
5 
5 
3 
5 
1 
3 
6 
4 
5 
5 
1 
5 
3 
